25 40
1 2 1
1 6 3
2 3 4
2 7 2
3 4 1
3 8 4
4 5 1
4 9 4
5 10 4
6 7 3
6 11 1
7 8 3
7 12 5
8 9 5
8 13 2
9 10 4
9 14 2
10 15 2
11 12 3
11 16 4
12 13 4
12 17 2
13 14 1
13 18 4
14 15 3
14 19 4
15 20 5
16 17 2
16 21 1
17 18 4
17 22 1
18 19 3
18 23 3
19 20 5
19 24 1
20 25 5
21 22 4
22 23 3
23 24 1
24 25 2
